DATASET = "thpack7";
INSTANCE = "078";

WIDTH = 233;
HEIGHT = 220;
LENGTH = 587;

NO_OF_SHAPES = 20;
size = [|
  105,68,42 |
  75,37,24 |
  79,73,26 |
  95,53,38 |
  50,41,40 |
  80,59,52 |
  90,74,35 |
  87,60,60 |
  68,50,39 |
  78,64,25 |
  73,65,52 |
  83,48,38 |
  87,76,44 |
  60,38,26 |
  82,65,64 |
  52,48,38 |
  95,91,63 |
  111,75,25 |
  117,81,36 |
  67,45,38 |
|];

verticality = [|
  0,1,1 |
  0,1,1 |
  0,0,1 |
  0,1,1 |
  1,1,1 |
  1,1,1 |
  0,0,1 |
  1,1,1 |
  1,1,1 |
  0,0,1 |
  1,1,1 |
  0,1,1 |
  1,1,1 |
  0,1,1 |
  1,1,1 |
  1,1,1 |
  1,1,1 |
  0,0,1 |
  0,0,1 |
  1,1,1 |
|];

box_count = [
  6,
  7,
  11,
  8,
  9,
  6,
  5,
  7,
  3,
  7,
  8,
  8,
  6,
  10,
  4,
  6,
  10,
  4,
  8,
  9,
];
